\ LP format - for model browsing. Use MPS format to capture full model detail.
\ Signature: 0xd4e9d63df88de712
Minimize
  Cmax
Subject To
 assign_0_0: y_0_0_0 + y_1_0_0 = 1
 proc_time_0_0: Ps_0_0 - 117 y_0_0_0 - 125 y_1_0_0 = 0
 assign_0_1: y_3_0_1 + y_1_0_1 = 1
 proc_time_0_1: Ps_0_1 - 140 y_3_0_1 - 130 y_1_0_1 = 0
 assign_0_2: y_3_0_2 + y_4_0_2 = 1
 proc_time_0_2: Ps_0_2 - 150 y_3_0_2 - 160 y_4_0_2 = 0
 seq_0_0_to_1: t_0_0 + Ps_0_0 - t_0_1 <= 0
 seq_0_1_to_2: t_0_1 + Ps_0_1 - t_0_2 <= 0
 assign_1_0: y_0_1_0 + y_2_1_0 = 1
 proc_time_1_0: Ps_1_0 - 214 y_0_1_0 - 150 y_2_1_0 = 0
 assign_1_1: y_2_1_1 + y_1_1_1 = 1
 proc_time_1_1: Ps_1_1 - 55 y_2_1_1 - 66 y_1_1_1 = 0
 assign_1_2: y_4_1_2 + y_2_1_2 = 1
 proc_time_1_2: Ps_1_2 - 78 y_4_1_2 - 65 y_2_1_2 = 0
 seq_1_0_to_1: t_1_0 + Ps_1_0 - t_1_1 <= 0
 seq_1_1_to_2: t_1_1 + Ps_1_1 - t_1_2 <= 0
 assign_2_0: y_0_2_0 + y_1_2_0 = 1
 proc_time_2_0: Ps_2_0 - 87 y_0_2_0 - 62 y_1_2_0 = 0
 assign_2_1: y_3_2_1 + y_2_2_1 = 1
 proc_time_2_1: Ps_2_1 - 70 y_3_2_1 - 80 y_2_2_1 = 0
 assign_2_2: y_3_2_2 + y_4_2_2 = 1
 proc_time_2_2: Ps_2_2 - 190 y_3_2_2 - 100 y_4_2_2 = 0
 seq_2_0_to_1: t_2_0 + Ps_2_0 - t_2_1 <= 0
 seq_2_1_to_2: t_2_1 + Ps_2_1 - t_2_2 <= 0
 no_overlap1_0_0_0_1_0: t_0_0 + Ps_0_0 + 3421 y_0_0_0 - t_1_0
   + 3421 y_0_1_0 + 3421 z_0_0_0_1_0 <= 10263
 no_overlap2_0_0_0_1_0: - t_0_0 + 3421 y_0_0_0 + t_1_0 + Ps_1_0
   + 3421 y_0_1_0 - 3421 z_0_0_0_1_0 <= 6842
 no_overlap1_0_0_0_2_0: t_0_0 + Ps_0_0 + 3421 y_0_0_0 - t_2_0
   + 3421 y_0_2_0 + 3421 z_0_0_0_2_0 <= 10263
 no_overlap2_0_0_0_2_0: - t_0_0 + 3421 y_0_0_0 + t_2_0 + Ps_2_0
   + 3421 y_0_2_0 - 3421 z_0_0_0_2_0 <= 6842
 no_overlap1_0_1_0_2_0: t_1_0 + Ps_1_0 + 3421 y_0_1_0 - t_2_0
   + 3421 y_0_2_0 + 3421 z_0_1_0_2_0 <= 10263
 no_overlap2_0_1_0_2_0: - t_1_0 + 3421 y_0_1_0 + t_2_0 + Ps_2_0
   + 3421 y_0_2_0 - 3421 z_0_1_0_2_0 <= 6842
 no_overlap1_1_0_0_0_1: t_0_0 + Ps_0_0 + 3421 y_1_0_0 - t_0_1
   + 3421 y_1_0_1 + 3421 z_1_0_0_0_1 <= 10263
 no_overlap2_1_0_0_0_1: - t_0_0 + 3421 y_1_0_0 + t_0_1 + Ps_0_1
   + 3421 y_1_0_1 - 3421 z_1_0_0_0_1 <= 6842
 no_overlap1_1_0_0_1_1: t_0_0 + Ps_0_0 + 3421 y_1_0_0 - t_1_1
   + 3421 y_1_1_1 + 3421 z_1_0_0_1_1 <= 10263
 no_overlap2_1_0_0_1_1: - t_0_0 + 3421 y_1_0_0 + t_1_1 + Ps_1_1
   + 3421 y_1_1_1 - 3421 z_1_0_0_1_1 <= 6842
 no_overlap1_1_0_0_2_0: t_0_0 + Ps_0_0 + 3421 y_1_0_0 - t_2_0
   + 3421 y_1_2_0 + 3421 z_1_0_0_2_0 <= 10263
 no_overlap2_1_0_0_2_0: - t_0_0 + 3421 y_1_0_0 + t_2_0 + Ps_2_0
   + 3421 y_1_2_0 - 3421 z_1_0_0_2_0 <= 6842
 no_overlap1_1_0_1_1_1: t_0_1 + Ps_0_1 + 3421 y_1_0_1 - t_1_1
   + 3421 y_1_1_1 + 3421 z_1_0_1_1_1 <= 10263
 no_overlap2_1_0_1_1_1: - t_0_1 + 3421 y_1_0_1 + t_1_1 + Ps_1_1
   + 3421 y_1_1_1 - 3421 z_1_0_1_1_1 <= 6842
 no_overlap1_1_0_1_2_0: t_0_1 + Ps_0_1 + 3421 y_1_0_1 - t_2_0
   + 3421 y_1_2_0 + 3421 z_1_0_1_2_0 <= 10263
 no_overlap2_1_0_1_2_0: - t_0_1 + 3421 y_1_0_1 + t_2_0 + Ps_2_0
   + 3421 y_1_2_0 - 3421 z_1_0_1_2_0 <= 6842
 no_overlap1_1_1_1_2_0: t_1_1 + Ps_1_1 + 3421 y_1_1_1 - t_2_0
   + 3421 y_1_2_0 + 3421 z_1_1_1_2_0 <= 10263
 no_overlap2_1_1_1_2_0: - t_1_1 + 3421 y_1_1_1 + t_2_0 + Ps_2_0
   + 3421 y_1_2_0 - 3421 z_1_1_1_2_0 <= 6842
 no_overlap1_2_1_0_1_1: t_1_0 + Ps_1_0 + 3421 y_2_1_0 - t_1_1
   + 3421 y_2_1_1 + 3421 z_2_1_0_1_1 <= 10263
 no_overlap2_2_1_0_1_1: - t_1_0 + 3421 y_2_1_0 + t_1_1 + Ps_1_1
   + 3421 y_2_1_1 - 3421 z_2_1_0_1_1 <= 6842
 no_overlap1_2_1_0_1_2: t_1_0 + Ps_1_0 + 3421 y_2_1_0 - t_1_2
   + 3421 y_2_1_2 + 3421 z_2_1_0_1_2 <= 10263
 no_overlap2_2_1_0_1_2: - t_1_0 + 3421 y_2_1_0 + t_1_2 + Ps_1_2
   + 3421 y_2_1_2 - 3421 z_2_1_0_1_2 <= 6842
 no_overlap1_2_1_0_2_1: t_1_0 + Ps_1_0 + 3421 y_2_1_0 - t_2_1
   + 3421 y_2_2_1 + 3421 z_2_1_0_2_1 <= 10263
 no_overlap2_2_1_0_2_1: - t_1_0 + 3421 y_2_1_0 + t_2_1 + Ps_2_1
   + 3421 y_2_2_1 - 3421 z_2_1_0_2_1 <= 6842
 no_overlap1_2_1_1_1_2: t_1_1 + Ps_1_1 + 3421 y_2_1_1 - t_1_2
   + 3421 y_2_1_2 + 3421 z_2_1_1_1_2 <= 10263
 no_overlap2_2_1_1_1_2: - t_1_1 + 3421 y_2_1_1 + t_1_2 + Ps_1_2
   + 3421 y_2_1_2 - 3421 z_2_1_1_1_2 <= 6842
 no_overlap1_2_1_1_2_1: t_1_1 + Ps_1_1 + 3421 y_2_1_1 - t_2_1
   + 3421 y_2_2_1 + 3421 z_2_1_1_2_1 <= 10263
 no_overlap2_2_1_1_2_1: - t_1_1 + 3421 y_2_1_1 + t_2_1 + Ps_2_1
   + 3421 y_2_2_1 - 3421 z_2_1_1_2_1 <= 6842
 no_overlap1_2_1_2_2_1: t_1_2 + Ps_1_2 + 3421 y_2_1_2 - t_2_1
   + 3421 y_2_2_1 + 3421 z_2_1_2_2_1 <= 10263
 no_overlap2_2_1_2_2_1: - t_1_2 + 3421 y_2_1_2 + t_2_1 + Ps_2_1
   + 3421 y_2_2_1 - 3421 z_2_1_2_2_1 <= 6842
 no_overlap1_3_0_1_0_2: t_0_1 + Ps_0_1 + 3421 y_3_0_1 - t_0_2
   + 3421 y_3_0_2 + 3421 z_3_0_1_0_2 <= 10263
 no_overlap2_3_0_1_0_2: - t_0_1 + 3421 y_3_0_1 + t_0_2 + Ps_0_2
   + 3421 y_3_0_2 - 3421 z_3_0_1_0_2 <= 6842
 no_overlap1_3_0_1_2_1: t_0_1 + Ps_0_1 + 3421 y_3_0_1 - t_2_1
   + 3421 y_3_2_1 + 3421 z_3_0_1_2_1 <= 10263
 no_overlap2_3_0_1_2_1: - t_0_1 + 3421 y_3_0_1 + t_2_1 + Ps_2_1
   + 3421 y_3_2_1 - 3421 z_3_0_1_2_1 <= 6842
 no_overlap1_3_0_1_2_2: t_0_1 + Ps_0_1 + 3421 y_3_0_1 - t_2_2
   + 3421 y_3_2_2 + 3421 z_3_0_1_2_2 <= 10263
 no_overlap2_3_0_1_2_2: - t_0_1 + 3421 y_3_0_1 + t_2_2 + Ps_2_2
   + 3421 y_3_2_2 - 3421 z_3_0_1_2_2 <= 6842
 no_overlap1_3_0_2_2_1: t_0_2 + Ps_0_2 + 3421 y_3_0_2 - t_2_1
   + 3421 y_3_2_1 + 3421 z_3_0_2_2_1 <= 10263
 no_overlap2_3_0_2_2_1: - t_0_2 + 3421 y_3_0_2 + t_2_1 + Ps_2_1
   + 3421 y_3_2_1 - 3421 z_3_0_2_2_1 <= 6842
 no_overlap1_3_0_2_2_2: t_0_2 + Ps_0_2 + 3421 y_3_0_2 - t_2_2
   + 3421 y_3_2_2 + 3421 z_3_0_2_2_2 <= 10263
 no_overlap2_3_0_2_2_2: - t_0_2 + 3421 y_3_0_2 + t_2_2 + Ps_2_2
   + 3421 y_3_2_2 - 3421 z_3_0_2_2_2 <= 6842
 no_overlap1_3_2_1_2_2: t_2_1 + Ps_2_1 + 3421 y_3_2_1 - t_2_2
   + 3421 y_3_2_2 + 3421 z_3_2_1_2_2 <= 10263
 no_overlap2_3_2_1_2_2: - t_2_1 + 3421 y_3_2_1 + t_2_2 + Ps_2_2
   + 3421 y_3_2_2 - 3421 z_3_2_1_2_2 <= 6842
 no_overlap1_4_0_2_1_2: t_0_2 + Ps_0_2 + 3421 y_4_0_2 - t_1_2
   + 3421 y_4_1_2 + 3421 z_4_0_2_1_2 <= 10263
 no_overlap2_4_0_2_1_2: - t_0_2 + 3421 y_4_0_2 + t_1_2 + Ps_1_2
   + 3421 y_4_1_2 - 3421 z_4_0_2_1_2 <= 6842
 no_overlap1_4_0_2_2_2: t_0_2 + Ps_0_2 + 3421 y_4_0_2 - t_2_2
   + 3421 y_4_2_2 + 3421 z_4_0_2_2_2 <= 10263
 no_overlap2_4_0_2_2_2: - t_0_2 + 3421 y_4_0_2 + t_2_2 + Ps_2_2
   + 3421 y_4_2_2 - 3421 z_4_0_2_2_2 <= 6842
 no_overlap1_4_1_2_2_2: t_1_2 + Ps_1_2 + 3421 y_4_1_2 - t_2_2
   + 3421 y_4_2_2 + 3421 z_4_1_2_2_2 <= 10263
 no_overlap2_4_1_2_2_2: - t_1_2 + 3421 y_4_1_2 + t_2_2 + Ps_2_2
   + 3421 y_4_2_2 - 3421 z_4_1_2_2_2 <= 6842
 cmax_job_0: Cmax - t_0_2 - Ps_0_2 >= 0
 cmax_job_1: Cmax - t_1_2 - Ps_1_2 >= 0
 cmax_job_2: Cmax - t_2_2 - Ps_2_2 >= 0
Bounds
Binaries
 y_0_0_0 y_1_0_0 y_3_0_1 y_1_0_1 y_3_0_2 y_4_0_2 y_0_1_0 y_2_1_0 y_2_1_1
 y_1_1_1 y_4_1_2 y_2_1_2 y_0_2_0 y_1_2_0 y_3_2_1 y_2_2_1 y_3_2_2 y_4_2_2
 z_0_0_0_1_0 z_0_0_0_2_0 z_0_1_0_2_0 z_1_0_0_0_1 z_1_0_0_1_1 z_1_0_0_2_0
 z_1_0_1_1_1 z_1_0_1_2_0 z_1_1_1_2_0 z_2_1_0_1_1 z_2_1_0_1_2 z_2_1_0_2_1
 z_2_1_1_1_2 z_2_1_1_2_1 z_2_1_2_2_1 z_3_0_1_0_2 z_3_0_1_2_1 z_3_0_1_2_2
 z_3_0_2_2_1 z_3_0_2_2_2 z_3_2_1_2_2 z_4_0_2_1_2 z_4_0_2_2_2 z_4_1_2_2_2
End
